pair_style reax/c potential.control safezone 1.6 
pair_coeff      * * potential.pot {kind_symbols}
fix qeq all qeq/reax 1 0.0 10.0 1e-6 reax/c
compute reax all pair reax/c
