pair_style      eam/fs
pair_coeff      * * potential.pot Fe
