pair_style reax/c NULL safezone 1.6 
pair_coeff      * * potential.pot Fe S
fix qeq all qeq/reax 1 0.0 10.0 1e-6 reax/c
fix_modify qeq energy yes
