pair_style      tersoff
pair_coeff      * * potential.pot Ga N
