units           metal
boundary        p p p
box tilt large
atom_style      atomic
read_data       input.data
pair_style      eam/fs
pair_coeff      * * potential.pot A B
neighbor 0.3 bin
neigh_modify check no delay 0 every 1
timestep        0.001
thermo_style custom step temp epair emol etotal press
thermo          1000
restart        100 calc.restart
velocity        all create 300 12345 dist gaussian mom yes
velocity        all scale 300
fix             int all nvt temp 300 300 0.5 
run             100
reset_timestep  0
dump            aiida all custom 10 output.traj element x y z
dump_modify     aiida format line "%4s  %16.10f %16.10f %16.10f"
dump_modify     aiida sort id
dump_modify     aiida element A B
variable temp equal temp
variable etotal equal etotal
variable step equal step
fix sys_info all print 10 "${temp} ${etotal} ${step}" title "temp etotal step" file sys_info.txt screen no
run             1000
variable final_energy equal etotal
print "final_energy: ${final_energy}"
