pair_style      tersoff
pair_coeff      * * potential.pot {kind_symbols}
