#-------------------------Start of Potential information-------------------------#
pair_style meam 
pair_coeff * * potential.dat Fe Fe
#--------------------------End of Potential information--------------------------#
