#-------------------------Start of Potential information-------------------------#
pair_style eam/alloy 
pair_coeff * * potential.dat Fe Fe
#--------------------------End of Potential information--------------------------#
