#------------------------Start of the Control information------------------------#
clear
units metal
newton on
timestep 1e-05
#-------------------------End of the Control information-------------------------#
#---------------------Start of the read restart information----------------------#
read_restart input_aiida_lammps.restart
#----------------------End of the read restart information-----------------------#
#-------------------------Start of Potential information-------------------------#
pair_style eam/alloy 
pair_coeff * * potential.dat Fe Fe
#--------------------------End of Potential information--------------------------#
#--------------------------Start of the Fix information--------------------------#
fix box_relax_all_aiida all box/relax iso 0.0 vmax 0.001
#---------------------------End of the Fix information---------------------------#
#------------------------Start of the Compute information------------------------#
compute ke_atom_all_aiida all ke/atom    
compute pe_atom_all_aiida all pe/atom    
compute pressure_all_aiida all pressure thermo_temp
compute stress_atom_all_aiida all stress/atom NULL
#-------------------------End of the Compute information-------------------------#
#------------------------Start of the Thermo information-------------------------#
thermo_style custom step ke pe press pxx pyy pzz etotal c_pressure_all_aiida c_pressure_all_aiida[1] c_pressure_all_aiida[2] c_pressure_all_aiida[3] c_pressure_all_aiida[4] c_pressure_all_aiida[5] c_pressure_all_aiida[6]
thermo 100
#-------------------------End of the Thermo information--------------------------#
#-------------------------Start of the Dump information--------------------------#
dump aiida all custom 1000 temp.dump id type element x y z c_ke_atom_all_aiida c_pe_atom_all_aiida c_stress_atom_all_aiida[1] c_stress_atom_all_aiida[2] c_stress_atom_all_aiida[3] c_stress_atom_all_aiida[4] c_stress_atom_all_aiida[5] c_stress_atom_all_aiida[6]
dump_modify aiida sort id
dump_modify aiida element Fe Fe
dump_modify aiida format line "%6d %4d %4s %16.10f %16.10f %16.10f %16.10f %16.10f %16.10f %16.10f %16.10f %16.10f %16.10f %16.10f"
#--------------------------End of the Dump information---------------------------#
#--------------------------Start of the MD information---------------------------#
fix npt_all_aiida all npt temp 300 300 100  iso 0.0 0.0 1000.0 
reset_timestep 0
run_style verlet
run 100
#---------------------------End of the MD information----------------------------#
#--------------------Start of the Final Variables information--------------------#
variable final_step equal step
variable final_ke equal ke
variable final_pe equal pe
variable final_press equal press
variable final_pxx equal pxx
variable final_pyy equal pyy
variable final_pzz equal pzz
variable final_etotal equal etotal
variable final_c_pressure_all_aiida equal c_pressure_all_aiida
variable final_c_pressure_all_aiida__1__ equal c_pressure_all_aiida[1]
variable final_c_pressure_all_aiida__2__ equal c_pressure_all_aiida[2]
variable final_c_pressure_all_aiida__3__ equal c_pressure_all_aiida[3]
variable final_c_pressure_all_aiida__4__ equal c_pressure_all_aiida[4]
variable final_c_pressure_all_aiida__5__ equal c_pressure_all_aiida[5]
variable final_c_pressure_all_aiida__6__ equal c_pressure_all_aiida[6]
#---------------------End of the Final Variables information---------------------#
#---------------Start of the Printing Final Variables information----------------#
print "#Final results" file aiida_lammps.yaml
print "final_step: ${final_step}" append aiida_lammps.yaml
print "final_ke: ${final_ke}" append aiida_lammps.yaml
print "final_pe: ${final_pe}" append aiida_lammps.yaml
print "final_press: ${final_press}" append aiida_lammps.yaml
print "final_pxx: ${final_pxx}" append aiida_lammps.yaml
print "final_pyy: ${final_pyy}" append aiida_lammps.yaml
print "final_pzz: ${final_pzz}" append aiida_lammps.yaml
print "final_etotal: ${final_etotal}" append aiida_lammps.yaml
print "final_c_pressure_all_aiida: ${final_c_pressure_all_aiida}" append aiida_lammps.yaml
print "final_c_pressure_all_aiida__1__: ${final_c_pressure_all_aiida__1__}" append aiida_lammps.yaml
print "final_c_pressure_all_aiida__2__: ${final_c_pressure_all_aiida__2__}" append aiida_lammps.yaml
print "final_c_pressure_all_aiida__3__: ${final_c_pressure_all_aiida__3__}" append aiida_lammps.yaml
print "final_c_pressure_all_aiida__4__: ${final_c_pressure_all_aiida__4__}" append aiida_lammps.yaml
print "final_c_pressure_all_aiida__5__: ${final_c_pressure_all_aiida__5__}" append aiida_lammps.yaml
print "final_c_pressure_all_aiida__6__: ${final_c_pressure_all_aiida__6__}" append aiida_lammps.yaml
#----------------End of the Printing Final Variables information-----------------#
#---------------------Start of the write restart information---------------------#
write_restart restart.aiida
#----------------------End of the write restart information----------------------#
