#-------------------------Start of Potential information-------------------------#
pair_style meam 
pair_coeff * * temp.pot Fe
#--------------------------End of Potential information--------------------------#
