# ---- Start of Potential information ----
pair_style morse 
pair_coeff * * 6.65905e+00 -4.17400e-01 1.38850e+00 2.84500e+00
# ---- End of Potential information ----
