#-------------------------Start of Potential information-------------------------#
pair_style tersoff 
pair_coeff * * temp.pot Fe
#--------------------------End of Potential information--------------------------#
