# ---- Start of Potential information ----
pair_style eam/alloy 
pair_coeff * * temp.pot Fe Fe
# ---- End of Potential information ----
