units           real
boundary        p p p
box tilt large
atom_style      charge
read_data       input.data
pair_style reax/c potential.control safezone 1.6 
pair_coeff      * * potential.pot A B
fix qeq all qeq/reax 1 0.0 10.0 1e-6 reax/c
compute reax all pair reax/c
neighbor 0.3 bin
neigh_modify every 1 delay 0 check no
timestep        0.001
thermo_style custom step temp epair emol etotal press c_reax[1]
thermo          1000
restart        100 calc.restart
velocity        all create 300 12345 dist gaussian mom yes
velocity        all scale 300
fix             int all nvt temp 300 300 0.5 
run             100
reset_timestep  0
dump            aiida all custom 10 output.traj element x y z q
dump_modify     aiida format line "%4s  %16.10f %16.10f %16.10f %16.10f"
dump_modify     aiida sort id
dump_modify     aiida element A B
variable temp equal temp
variable etotal equal etotal
variable c_reax_1_ equal c_reax[1]
variable step equal step
fix sys_info all print 10 "${temp} ${etotal} ${c_reax_1_} ${step}" title "temp etotal c_reax_1_ step" file sys_info.txt screen no
run             1000
variable final_energy equal etotal
print "final_energy: ${final_energy}"
